12 23 22 31 30 32 33 34 35 36 37 38 40 41 39 42 43 48 47 44 45 46 555 556 557 558 559 550 551 101 102 100 99 552 553 554 98 97 96 95 94 89 88 87 86 85 90 93 92 91 50 84 51 52 49 54 53 55 56 58 57 83 82 81 59 60 61 63 62 79 80 78 77 76 64 65 66 67 68 70 69 124 71 72 75 74 73 119 118 120 121 122 123 117 106 105 104 103 547 546 545 544 543 541 542 107 109 108 173 174 175 176 177 178 179 181 180 169 171 170 172 110 111 112 113 114 115 116 126 125 127 128 129 130 131 132 133 134 135 136 137 138 139 140 141 151 150 149 152 148 147 146 142 143 144 145 158 157 153 156 159 155 154 160 161 162 168 163 167 166 164 165 203 204 202 201 200 199 198 205 206 207 208 209 210 211 212 213 214 215 217 216 246 247 245 244 243 239 238 240 237 236 235 234 232 233 231 230 229 228 227 189 190 192 191 226 225 224 223 222 221 220 218 219 193 194 195 196 197 184 185 183 182 186 188 187 540 538 539 537 536 535 534 487 486 485 484 483 481 482 475 476 480 479 477 478 548 549 560 561 562 563 564 565 566 567 26 27 29 28 25 24 21 20 19 568 569 570 474 473 472 471 495 494 524 525 493 492 491 490 489 488 533 532 531 530 529 528 526 523 522 521 520 518 519 497 498 501 500 499 452 453 440 439 442 443 444 445 446 447 448 449 441 450 451 311 312 313 310 309 308 505 504 503 502 517 516 515 514 527 512 513 511 510 509 506 507 508 302 301 241 242 248 249 250 251 252 254 253 255 261 260 256 257 300 258 259 262 263 264 266 265 299 298 297 296 295 294 293 270 269 268 267 271 272 273 274 275 292 291 290 289 288 276 277 278 279 282 281 280 287 286 285 284 283 334 335 336 337 338 339 333 332 331 330 340 341 343 344 345 346 364 363 362 347 348 349 350 351 415 416 414 413 352 353 354 355 357 358 359 361 360 401 402 403 400 399 406 407 408 405 404 409 385 387 391 392 393 394 397 398 370 369 368 367 365 342 366 329 328 327 326 325 324 323 322 321 320 319 306 304 303 307 305 318 317 316 314 315 374 373 372 371 396 395 375 376 377 378 379 380 381 390 389 388 386 383 384 356 412 411 410 418 417 419 420 421 422 423 424 425 382 426 427 428 429 431 430 432 433 434 435 436 437 438 454 455 456 457 458 459 460 461 462 463 466 465 464 496 470 469 468 467 571 572 573 0 1 2 3 4 5 6 7 8 17 18 9 10 11 16 15 14 13